50 1001
701 1064 825 337 966 1014 1154 800 575 1115 586 1024 807 730 503 963 959 162 723 1001 1062 954 1067 1110 640 278 1144 1077 332 403 787 1069 885 959 634 932 506 1013 928 1112 1020 948 262 1089 706 534 988 973 1146 467 
299 796 429 65 623 702 999 401 196 904 204 720 408 327 148 617 611 15 320 679 791 604 801 893 246 44 973 821 63 94 386 805 505 612 241 570 150 700 564 897 713 595 39 848 304 168 658 634 978 127 
